(set-option :produce-models true)
(set-logic QF_UF)
(declare-fun p34() Bool)
(declare-fun p22() Bool)
(declare-fun p28() Bool)
(declare-fun p10() Bool)
(declare-fun p36() Bool)
(declare-fun p25() Bool)
(declare-fun p16() Bool)
(declare-fun p4() Bool)
(declare-fun p47() Bool)
(declare-fun p26() Bool)
(declare-fun p27() Bool)
(declare-fun p39() Bool)
(declare-fun p8() Bool)
(declare-fun p24() Bool)
(declare-fun p45() Bool)
(declare-fun p32() Bool)
(declare-fun p21() Bool)
(declare-fun p35() Bool)
(declare-fun p11() Bool)
(declare-fun p49() Bool)
(declare-fun p18() Bool)
(declare-fun p7() Bool)
(declare-fun p29() Bool)
(declare-fun p30() Bool)
(declare-fun p0() Bool)
(declare-fun p12() Bool)
(declare-fun p46() Bool)
(declare-fun p1() Bool)
(declare-fun p15() Bool)
(declare-fun p3() Bool)
(declare-fun p48() Bool)
(declare-fun p5() Bool)
(declare-fun p9() Bool)
(declare-fun p33() Bool)
(declare-fun p38() Bool)
(declare-fun p2() Bool)
(declare-fun p19() Bool)
(declare-fun p23() Bool)
(declare-fun p14() Bool)
(declare-fun p13() Bool)
(declare-fun p20() Bool)
(declare-fun p31() Bool)
(declare-fun p44() Bool)
(declare-fun p42() Bool)
(declare-fun p40() Bool)
(declare-fun p37() Bool)
(declare-fun p41() Bool)
(declare-fun p43() Bool)
(declare-fun p6() Bool)
(declare-fun p17() Bool)
(assert
(and (or p34 (not p22) (not p28)) (or (not p28) (not p10) p36) (or p25 (not p36) (not p16)) (or (not p4) (not p47) p26) (or p27 (not p39) (not p39)) (or (not p8) (not p24) p45) (or p16 (not p27) (not p22)) (or (not p32) (not p21) p35) (or p11 (not p36) p49) (or (not p27) p18 (not p47)) (or (not p7) (not p29) (not p10)) (or p30 (not p22) p21) (or p22 (not p0) p12) (or (not p46) p1 p27) (or (not p15) p3 (not p48)) (or (not p5) p15 (not p9)) (or p33 p38 (not p39)) (or p36 p32 p22) (or p2 p28 (not p25)) (or (not p19) (not p19) p26) (or p23 (not p14) p10) (or p30 p10 (not p13)) (or (not p11) (not p10) (not p4)) (or p10 (not p38) p0) (or (not p20) (not p30) (not p22)) (or (not p32) (not p24) p21) (or (not p23) p27 p38) (or p21 (not p5) p3) (or (not p22) (not p25) (not p30)) (or p32 (not p3) (not p31)) (or p1 p18 (not p9)) (or p12 p34 p22) (or p33 (not p38) p25) (or (not p2) (not p27) p1) (or p23 (not p29) p14) (or (not p29) p28 (not p44)) (or (not p11) (not p42) p14) (or p42 (not p18) p15) (or p33 p33 p22) (or (not p3) (not p3) p19) (or (not p47) (not p40) (not p18)) (or p10 (not p11) p21) (or p2 (not p12) p8) (or p19 p35 (not p30)) (or (not p2) p26 p20) (or (not p14) p2 (not p16)) (or p33 p26 (not p8)) (or p15 (not p29) (not p31)) (or p4 p22 p36) (or p45 p13 p21) (or (not p13) p0 (not p37)) (or p27 p20 p16) (or p18 (not p38) p10) (or p28 (not p18) (not p28)) (or p30 p16 (not p34)) (or p8 p24 (not p48)) (or p33 p37 p1) (or p10 (not p0) (not p12)) (or (not p49) p18 (not p16)) (or p32 (not p23) p21) (or (not p1) (not p48) (not p10)) (or (not p22) (not p28) p31) (or p42 p35 (not p23)) (or (not p41) p48 p21) (or (not p3) p30 p21) (or p49 (not p32) p5) (or (not p39) (not p25) (not p45)) (or (not p40) (not p31) p7) (or (not p27) p25 (not p25)) (or p46 p15 p42) (or (not p43) p9 (not p27)) (or (not p33) p25 p32) (or (not p13) (not p27) p40) (or (not p3) p31 p18) (or p49 (not p22) p30) (or p29 (not p9) (not p2)) (or p16 p2 (not p45)) (or (not p32) p1 p36) (or (not p11) p12 p40) (or p2 (not p8) (not p18)) (or (not p4) (not p9) p1) (or (not p9) p20 p25) (or (not p22) p23 (not p21)) (or p37 (not p45) (not p41)) (or (not p2) (not p32) p33) (or p49 p9 (not p40)) (or (not p15) (not p15) (not p46)) (or (not p16) (not p0) (not p4)) (or (not p27) p20 p3) (or (not p39) p8 p6) (or p16 p1 p21) (or (not p30) (not p22) p20) (or p6 (not p7) (not p26)) (or p3 p45 (not p8)) (or (not p20) (not p21) p21) (or p45 p1 (not p46)) (or p42 (not p35) (not p13)) (or p40 (not p36) p16) (or p22 (not p18) (not p46)) (or (not p7) (not p3) (not p15)) (or p41 p34 p35) (or (not p7) p44 (not p38)) (or p24 p36 (not p26)) (or (not p46) (not p23) p14) (or (not p39) p26 (not p4)) (or (not p28) p2 (not p35)) (or p2 p40 p32) (or (not p17) (not p32) p3) (or (not p20) (not p29) (not p30)) (or p0 (not p36) (not p45)) (or (not p32) p32 p23) (or (not p14) p46 p33) (or (not p22) (not p28) (not p0)) (or (not p3) (not p19) (not p20)) (or (not p17) p24 (not p3)) (or (not p11) p19 (not p17)) (or p21 p24 p2) (or (not p23) p26 (not p24)) (or p38 (not p4) p18) (or p22 p39 p14) (or (not p9) (not p1) (not p2)) (or (not p30) (not p42) p42) (or p29 p9 p32) (or p14 (not p31) (not p35)) (or (not p15) p32 p48) (or p46 (not p36) (not p2)) (or (not p27) p40 p40) (or (not p38) p27 p39) (or (not p27) p11 p29) (or (not p46) p1 (not p38)) (or (not p23) (not p33) (not p35)) (or p31 (not p36) p49) (or p13 p12 p31) (or p41 p34 (not p44)) (or (not p19) (not p44) (not p24)) (or p20 p1 (not p22)) (or p26 (not p29) (not p36)) (or (not p34) p48 (not p8)) (or (not p24) (not p28) p48) (or p40 p47 (not p8)) (or p3 p25 (not p39)) (or (not p34) (not p42) (not p9)) (or p36 (not p40) p20) (or p43 (not p31) (not p32)) (or (not p9) (not p39) (not p27)) (or p46 (not p35) p17) (or (not p44) (not p20) (not p46)) (or (not p14) (not p37) (not p41)) (or p3 p0 (not p14)) (or p5 p13 (not p7)) (or p17 (not p13) (not p4)) (or p44 (not p16) p27) (or p32 (not p16) (not p7)) (or p45 p13 (not p31)) (or (not p42) p5 (not p24)) (or (not p47) (not p33) (not p18)) (or (not p13) (not p30) p35) (or p10 (not p26) p37) (or p15 (not p9) p26) (or (not p34) (not p18) p36) (or (not p14) (not p0) (not p13)) (or p47 p44 (not p14)) (or (not p48) p20 p46) (or (not p24) p41 (not p45)) (or (not p39) (not p26) (not p18)) (or (not p41) p14 (not p29)) (or p39 (not p6) p47) (or (not p40) p21 (not p7)) (or p12 p38 p21) (or (not p22) p29 p3) (or p24 p23 p13) (or (not p6) (not p48) p45) (or p11 p45 p36) (or p14 p42 (not p12)) (or (not p21) (not p47) (not p6)) (or (not p40) p29 p21) (or (not p16) p10 p46) (or (not p44) (not p46) p20) (or p21 (not p6) p49) (or p41 (not p19) p31) (or (not p4) p32 (not p43)) (or p35 (not p13) p23) (or p49 (not p18) p48) (or p31 p30 p47) (or p39 (not p28) (not p10)) (or p11 (not p35) (not p5)) (or p2 (not p22) p1) (or (not p16) p20 (not p38)) (or (not p4) (not p45) p19) (or p31 (not p2) p37) (or p4 (not p18) (not p2)) (or p28 (not p46) p46) (or (not p8) (not p17) (not p15)) (or p3 (not p29) p6) (or (not p0) (not p1) (not p35)) (or p15 (not p43) p13) (or (not p11) p45 (not p19)) (or (not p42) p25 (not p38)) (or p28 p7 p47) (or (not p26) p5 (not p48)) (or (not p42) p48 (not p15)) (or (not p35) (not p30) p44) (or (not p26) p14 p21) (or p36 p27 p46) (or (not p4) (not p32) (not p28)) (or (not p27) p22 p0) (or (not p36) (not p33) (not p25)) (or (not p23) (not p18) p13) (or (not p38) (not p6) (not p22)) (or p14 p22 (not p21)))
)
(check-sat)
(get-model)
